p tw 78 88
1 2
2 13
3 4
3 8
4 5
5 6
6 7
7 75
8 9
9 10
10 11
11 12
12 14
13 24
13 57
14 15
15 16
16 17
16 20
17 18
18 19
19 75
20 21
21 22
22 23
23 25
24 35
25 26
26 27
26 34
27 28
28 29
28 34
29 30
30 31
31 32
32 33
33 34
34 36
35 46
36 37
37 38
38 39
39 40
40 41
41 42
42 43
42 45
43 44
44 45
44 48
45 47
46 57
47 75
48 49
49 50
50 51
51 52
51 61
52 53
53 54
54 55
55 56
56 58
57 68
58 59
59 60
59 61
60 75
61 62
62 63
63 64
64 65
64 73
65 66
66 67
67 69
68 77
69 70
70 71
71 72
72 75
73 74
74 75
75 76
77 78
77 4
78 3
